 200 75 
 14 81 21 23 4 46 16 88 48 95 76 43 
 51 51 41 83 62 82 89 75 71 19 18 19 
 76 87 100 56 6 61 33 12 61 72 25 76 
 67 17 14 7 83 41 25 87 89 6 56 32 
 92 95 82 13 12 25 72 68 65 61 85 79 
 32 59 48 75 85 69 21 2 3 83 18 91 
 16 54 4 
 20 
 1 4 6 8 9 11 12 14 24 25 26 27 
 28 32 45 57 63 68 72 73 
 60 
 1 2 3 4 5 6 7 10 11 12 14 15 
 16 17 18 19 20 21 23 24 25 26 31 32 
 34 35 36 37 38 39 40 43 44 45 47 48 
 49 50 51 52 53 54 55 56 57 59 60 61 
 62 63 64 65 66 67 68 69 70 73 74 75 
 25 
 10 14 15 17 19 22 24 28 29 31 37 39 
 41 42 47 48 51 53 57 61 62 68 69 73 
 75 
 11 
 9 12 19 20 27 45 48 64 65 70 75 
 49 
 1 2 3 5 6 7 8 9 10 11 12 13 
 14 15 16 17 18 21 24 27 28 30 32 33 
 34 35 36 37 39 41 42 46 48 49 52 53 
 54 56 57 58 59 60 64 65 67 68 69 71 
 75 
 66 
 2 4 5 6 7 8 10 11 12 13 14 16 
 17 18 19 20 21 23 24 25 26 27 28 29 
 30 31 33 34 35 36 37 38 39 40 41 43 
 44 45 46 47 48 49 50 51 52 53 54 56 
 57 58 59 60 61 63 64 65 66 67 68 69 
 70 71 72 73 74 75 
 63 
 1 3 5 6 7 8 9 10 11 12 13 14 
 15 16 17 18 19 20 21 22 23 24 25 26 
 27 28 29 31 32 33 34 35 36 37 38 40 
 41 43 44 45 47 48 49 50 51 52 54 56 
 57 60 61 62 63 64 65 66 67 68 69 70 
 71 72 74 
 14 
 1 12 22 27 28 33 35 42 43 60 62 68 
 70 71 
 52 
 1 2 3 4 5 6 7 9 10 11 13 15 
 16 19 20 21 22 23 26 27 28 29 30 31 
 32 33 35 37 39 42 43 45 47 51 52 53 
 54 55 57 59 60 61 63 65 67 68 69 70 
 71 72 73 74 
 71 
 1 2 3 4 5 6 7 8 9 10 11 12 
 13 14 15 16 18 19 21 22 23 24 25 26 
 27 28 29 30 31 32 33 34 35 36 37 38 
 39 40 41 42 43 44 45 46 47 48 49 50 
 51 52 53 54 55 56 57 58 59 60 61 63 
 64 65 66 68 69 70 71 72 73 74 75 
 3 
 26 52 61 
 28 
 3 5 17 19 20 21 22 26 31 33 35 42 
 45 46 48 49 51 52 54 55 57 59 61 62 
 66 69 70 73 
 61 
 1 2 3 4 5 7 8 9 10 13 15 16 
 17 18 19 20 21 22 23 24 25 26 27 28 
 29 30 31 32 35 37 40 42 43 44 45 46 
 47 48 49 50 51 52 53 54 55 56 57 59 
 60 61 63 64 65 67 68 70 71 72 73 74 
 75 
 12 
 3 6 7 8 9 11 23 25 43 51 67 74 
 4 
 14 19 39 55 
 64 
 2 3 4 5 6 8 10 11 12 13 14 15 
 16 17 18 20 21 22 23 24 25 27 28 29 
 30 31 32 33 35 36 37 38 39 41 42 44 
 45 46 47 48 49 50 51 52 53 54 55 56 
 58 59 60 61 62 63 64 65 66 68 69 71 
 72 73 74 75 
 6 
 5 8 19 38 53 66 
 8 
 13 31 33 38 41 46 58 67 
 28 
 1 4 8 10 11 12 14 16 18 21 23 27 
 35 37 38 40 43 45 52 55 59 60 61 66 
 67 72 73 74 
 71 
 1 2 3 4 5 6 7 8 9 10 11 13 
 14 15 16 17 18 19 20 21 23 24 25 26 
 27 28 29 30 31 32 33 34 35 36 37 38 
 39 40 41 42 43 44 45 46 47 48 49 50 
 51 52 53 54 55 56 57 58 59 60 61 62 
 63 64 67 68 69 70 71 72 73 74 75 
 16 
 2 12 15 19 33 37 41 44 56 57 59 65 
 68 69 71 75 
 25 
 3 5 6 7 10 11 13 16 17 24 28 29 
 34 39 42 48 49 50 52 53 54 58 66 69 
 74 
 47 
 1 3 5 6 7 8 10 11 12 16 17 18 
 19 20 21 22 24 25 26 27 28 29 30 31 
 34 35 38 40 44 46 47 48 51 52 54 55 
 56 57 58 60 63 64 66 67 68 69 70 
 64 
 2 3 4 6 7 8 10 12 13 14 15 17 
 18 19 20 21 22 23 24 25 26 27 28 29 
 31 32 33 34 36 37 38 39 40 41 42 43 
 44 45 46 47 48 49 51 52 53 54 55 57 
 58 59 60 61 62 63 64 66 67 68 69 70 
 72 73 74 75 
 45 
 4 5 7 8 10 11 15 16 20 23 24 25 
 27 29 33 34 35 36 38 40 41 42 43 44 
 46 47 48 52 53 54 55 56 57 58 60 61 
 62 63 65 66 67 69 72 73 74 
 33 
 1 2 4 7 9 10 16 20 21 24 25 26 
 28 30 32 36 38 40 41 42 45 48 50 51 
 52 53 60 61 65 68 69 72 75 
 16 
 3 8 11 14 22 24 26 34 40 48 50 51 
 57 66 72 73 
 73 
 1 2 3 4 5 6 7 8 9 10 11 12 
 13 14 15 17 18 19 20 21 22 23 24 25 
 26 27 28 29 30 31 32 33 34 35 36 37 
 38 39 40 41 42 43 44 45 46 47 48 49 
 50 51 52 53 54 55 56 57 58 59 60 61 
 62 63 64 65 66 67 68 69 70 71 72 73 
 75 
 20 
 1 5 8 10 14 15 16 22 31 32 37 39 
 48 50 56 62 63 66 68 69 
 24 
 3 6 8 19 20 21 22 29 35 37 38 39 
 41 42 44 47 52 56 57 62 66 70 71 74 
 15 
 2 17 18 21 23 25 41 42 44 45 51 53 
 66 74 75 
 31 
 3 4 6 9 10 14 17 19 20 28 30 31 
 34 35 36 38 39 41 43 47 49 50 51 53 
 54 55 57 61 68 73 74 
 31 
 4 14 16 17 19 20 28 30 33 34 37 39 
 40 41 43 45 49 51 53 54 56 59 61 67 
 68 69 71 72 73 74 75 
 12 
 10 12 13 15 19 21 40 43 48 52 54 55 
 22 
 2 6 11 13 18 22 25 29 30 33 36 43 
 49 50 54 57 58 66 71 72 74 75 
 27 
 2 8 13 14 16 20 22 23 27 31 35 37 
 38 44 46 51 52 53 60 61 66 67 69 70 
 71 73 74 
 17 
 1 3 13 22 27 33 35 38 40 45 51 53 
 57 58 60 62 67 
 48 
 2 4 5 6 8 9 10 12 14 16 17 19 
 21 23 25 26 27 30 31 34 35 36 37 38 
 39 40 41 42 44 50 51 53 54 55 56 57 
 58 60 61 62 65 66 69 70 71 72 74 75 
 31 
 1 6 7 8 9 12 19 23 26 27 28 30 
 32 35 36 41 45 48 50 51 52 53 55 57 
 59 61 68 70 73 74 75 
 72 
 1 2 3 4 5 7 8 9 11 12 13 14 
 15 16 17 18 19 20 21 22 23 24 25 26 
 27 28 29 30 31 32 33 34 35 36 37 38 
 39 40 41 42 43 44 45 46 47 48 49 50 
 51 53 54 55 56 57 58 59 60 61 62 63 
 64 65 66 67 68 69 70 71 72 73 74 75 
 66 
 1 2 3 6 7 8 9 10 11 12 13 14 
 15 16 17 18 19 20 21 22 23 24 25 26 
 28 29 30 31 32 33 34 36 37 38 39 40 
 41 42 43 44 45 46 47 48 50 51 52 53 
 55 56 57 58 59 60 61 62 63 64 66 68 
 69 70 71 72 73 75 
 29 
 1 4 8 10 11 14 19 21 22 23 24 26 
 30 34 37 39 40 44 45 46 47 48 49 50 
 52 55 58 60 65 
 42 
 1 7 9 10 11 13 14 16 17 21 23 24 
 27 28 32 33 34 35 39 44 45 46 48 49 
 50 51 54 56 57 58 59 60 61 64 65 66 
 67 68 69 70 72 73 
 15 
 1 3 5 13 17 28 40 41 54 62 64 68 
 69 70 73 
 28 
 1 2 3 4 8 12 13 14 15 16 23 26 
 31 33 34 38 40 44 45 46 52 55 56 57 
 59 63 68 69 
 29 
 6 7 11 12 14 16 18 19 24 25 31 36 
 37 39 43 46 47 49 50 51 53 56 57 58 
 60 63 64 74 75 
 55 
 1 5 6 7 8 9 10 12 15 16 17 18 
 19 21 23 26 27 28 29 30 32 33 35 36 
 37 40 41 42 43 44 45 46 47 49 50 51 
 52 53 55 56 57 58 59 60 61 62 63 65 
 66 67 68 69 73 74 75 
 47 
 2 3 4 5 6 8 9 10 11 12 13 16 
 17 18 19 20 21 23 24 26 27 28 30 31 
 33 35 37 41 46 48 49 50 51 52 53 54 
 55 56 57 58 62 65 67 68 69 72 74 
 74 
 1 2 3 4 5 6 7 8 9 10 11 12 
 13 14 15 16 17 18 19 20 21 22 24 25 
 26 27 28 29 30 31 32 33 34 35 36 37 
 38 39 40 41 42 43 44 45 46 47 48 49 
 50 51 52 53 54 55 56 57 58 59 60 61 
 62 63 64 65 66 67 68 69 70 71 72 73 
 74 75 
 30 
 1 3 4 5 12 15 18 19 20 21 26 29 
 32 34 43 45 46 47 49 53 54 56 61 64 
 68 70 71 72 73 74 
 55 
 2 4 6 7 8 10 11 12 13 16 17 19 
 20 21 23 24 25 26 28 29 32 33 35 37 
 39 40 41 42 44 45 46 47 48 49 50 51 
 52 53 54 55 58 59 60 61 63 64 66 67 
 68 69 70 71 72 73 74 
 53 
 1 2 4 5 6 7 8 9 10 11 12 14 
 15 16 17 18 21 23 24 25 26 27 28 30 
 31 32 36 39 40 41 42 44 47 49 50 51 
 52 53 56 57 58 60 61 64 65 67 68 69 
 70 71 73 74 75 
 65 
 1 2 4 5 6 7 9 10 11 12 13 14 
 15 16 17 19 20 21 22 23 24 25 27 28 
 29 31 32 33 34 35 36 37 38 39 40 41 
 42 43 44 45 46 47 48 49 50 51 52 53 
 54 55 57 58 59 60 61 62 64 65 66 67 
 68 71 72 73 75 
 5 
 8 61 66 74 75 
 9 
 3 18 28 29 44 53 66 67 69 
 13 
 5 8 22 27 32 37 39 46 52 60 65 71 
 72 
 6 
 6 15 20 36 39 47 
 40 
 1 3 4 5 8 9 11 14 17 18 21 22 
 24 25 26 28 30 33 34 35 36 40 41 46 
 48 51 52 55 56 59 60 64 65 66 67 68 
 69 72 73 74 
 13 
 7 11 21 24 29 32 33 43 45 63 64 70 
 72 
 75 
 1 2 3 4 5 6 7 8 9 10 11 12 
 13 14 15 16 17 18 19 20 21 22 23 24 
 25 26 27 28 29 30 31 32 33 34 35 36 
 37 38 39 40 41 42 43 44 45 46 47 48 
 49 50 51 52 53 54 55 56 57 58 59 60 
 61 62 63 64 65 66 67 68 69 70 71 72 
 73 74 75 
 53 
 2 4 6 7 8 10 11 12 13 16 17 18 
 20 22 24 25 26 27 30 31 32 33 34 36 
 37 38 39 40 41 42 44 47 48 49 50 51 
 52 53 55 57 58 59 60 61 62 63 65 66 
 67 68 69 71 73 
 19 
 3 5 9 12 17 22 25 26 38 42 43 44 
 47 53 61 63 69 70 73 
 40 
 5 6 7 9 10 12 13 15 16 17 18 19 
 20 22 24 25 26 29 30 31 32 35 37 39 
 41 42 46 47 50 51 53 55 56 58 60 61 
 65 69 72 73 
 37 
 2 4 5 6 8 9 10 15 16 17 19 21 
 24 27 28 31 32 33 36 40 41 42 45 49 
 50 52 53 55 57 59 60 61 64 65 68 69 
 74 
 60 
 1 2 3 5 6 7 8 9 10 11 12 14 
 15 16 17 18 19 24 25 26 28 29 31 32 
 33 34 35 36 37 38 39 41 42 43 44 45 
 47 48 49 51 52 53 54 55 56 57 58 59 
 60 61 62 63 64 65 66 69 70 73 74 75 
 30 
 1 2 3 4 7 8 9 13 14 16 20 21 
 28 29 30 34 36 39 41 42 43 47 51 53 
 60 64 65 72 74 75 
 44 
 1 6 7 8 10 12 13 14 15 19 20 21 
 22 25 26 27 28 29 30 31 32 34 35 36 
 37 39 41 43 44 45 46 47 49 54 57 58 
 59 62 65 67 68 69 72 73 
 75 
 1 2 3 4 5 6 7 8 9 10 11 12 
 13 14 15 16 17 18 19 20 21 22 23 24 
 25 26 27 28 29 30 31 32 33 34 35 36 
 37 38 39 40 41 42 43 44 45 46 47 48 
 49 50 51 52 53 54 55 56 57 58 59 60 
 61 62 63 64 65 66 67 68 69 70 71 72 
 73 74 75 
 52 
 1 3 4 6 7 8 9 10 12 14 15 17 
 19 21 22 24 25 26 28 32 33 35 36 38 
 39 40 41 42 43 44 45 46 47 49 50 52 
 53 55 56 57 58 59 62 63 64 65 68 71 
 72 73 74 75 
 40 
 1 4 6 7 9 10 11 19 20 22 27 29 
 30 32 34 36 39 41 42 43 44 45 46 47 
 48 51 52 55 56 59 60 62 63 66 67 69 
 70 71 72 74 
 10 
 4 10 13 20 37 51 55 57 58 69 
 53 
 1 2 4 5 6 7 10 11 13 14 15 17 
 18 20 21 22 23 24 25 26 27 29 31 33 
 34 36 38 39 42 43 44 45 47 50 51 53 
 55 56 57 58 59 60 61 62 63 64 65 66 
 68 70 71 72 75 
 60 
 1 4 5 6 7 9 10 11 12 14 15 16 
 17 20 21 22 24 26 27 29 30 31 32 34 
 35 36 37 38 39 40 41 42 43 44 46 47 
 48 50 52 53 54 55 56 57 58 59 60 61 
 63 64 65 66 67 69 70 71 72 73 74 75 
 37 
 2 5 7 8 9 10 11 12 13 17 18 22 
 23 24 25 27 32 33 37 41 42 44 46 47 
 52 53 55 57 61 63 64 65 66 67 71 74 
 75 
 26 
 1 5 6 9 10 16 20 24 25 27 29 30 
 32 33 34 37 49 51 52 53 57 62 63 65 
 71 75 
 34 
 2 4 11 13 15 17 18 20 22 23 26 33 
 35 37 39 40 41 42 43 44 47 48 53 56 
 57 59 60 64 65 66 67 71 73 75 
 71 
 1 2 3 4 5 6 7 8 9 10 11 12 
 13 15 16 17 18 19 20 22 23 24 25 26 
 27 28 29 30 31 32 33 34 35 36 37 38 
 39 40 41 42 43 44 45 46 47 48 49 50 
 51 52 53 54 55 56 57 58 59 60 61 63 
 64 65 67 68 69 70 71 72 73 74 75 
 26 
 1 2 4 5 9 16 19 24 27 28 34 41 
 42 43 44 46 48 51 52 56 57 58 64 66 
 68 75 
 26 
 1 4 11 12 13 16 18 28 32 35 37 40 
 43 44 46 55 56 59 61 63 64 65 66 71 
 72 74 
 52 
 2 3 4 5 7 8 9 10 11 13 14 15 
 16 19 20 21 23 24 25 26 28 30 32 33 
 34 36 37 38 39 40 41 42 43 45 46 49 
 50 51 52 53 54 55 56 57 58 60 62 67 
 68 70 72 74 
 61 
 1 3 4 5 6 9 10 12 14 15 16 19 
 21 22 23 24 26 27 28 30 31 32 33 34 
 36 37 38 39 40 42 43 44 45 46 47 48 
 49 50 51 52 53 54 55 56 58 59 60 61 
 62 63 64 65 66 67 68 69 70 71 73 74 
 75 
 11 
 1 3 6 10 11 16 43 54 56 65 71 
 71 
 1 2 3 4 5 6 7 8 9 10 11 12 
 13 14 15 16 17 18 20 21 22 23 24 25 
 28 29 30 31 32 34 35 36 37 38 39 40 
 41 42 43 44 45 46 47 48 49 50 51 52 
 53 54 55 56 57 58 59 60 61 62 63 64 
 65 66 67 68 69 70 71 72 73 74 75 
 21 
 13 21 25 26 36 37 39 42 44 50 51 52 
 53 56 57 59 64 65 68 70 72 
 34 
 5 7 10 12 15 18 19 20 22 27 28 30 
 32 36 37 39 40 43 44 47 49 53 57 58 
 61 63 64 65 67 70 71 72 73 75 
 2 
 47 68 
 22 
 6 8 9 10 21 27 29 30 33 38 39 47 
 54 55 56 58 61 63 66 68 71 73 
 42 
 2 4 6 7 8 11 16 17 19 22 24 27 
 28 29 30 32 33 34 35 37 38 41 43 44 
 46 48 50 51 52 54 58 60 61 62 63 64 
 65 67 68 69 70 73 
 56 
 2 4 5 6 8 10 11 12 13 14 16 17 
 18 19 20 21 22 25 26 27 28 29 30 31 
 32 35 36 37 38 40 41 42 45 46 48 49 
 50 51 52 54 56 57 60 61 62 63 65 66 
 67 68 70 71 72 73 74 75 
 6 
 17 34 38 41 55 70 
 65 
 1 4 6 7 9 10 11 12 13 14 15 17 
 19 20 21 22 23 24 25 26 27 28 29 30 
 31 32 33 35 36 37 38 40 41 42 43 44 
 45 46 47 48 49 50 51 52 53 55 56 57 
 58 59 60 61 62 63 64 65 66 67 68 70 
 71 72 73 74 75 
 63 
 1 4 5 6 7 8 9 10 11 12 14 16 
 17 18 19 20 21 22 23 24 25 26 27 28 
 29 30 31 32 33 34 36 38 39 40 41 42 
 43 44 45 46 47 49 51 52 53 56 57 58 
 59 60 61 62 63 64 65 66 67 69 71 72 
 73 74 75 
 68 
 1 2 3 5 6 7 8 9 10 11 12 13 
 14 15 16 17 19 20 21 22 23 25 26 27 
 29 30 31 32 33 34 35 36 37 38 39 40 
 41 42 43 44 46 47 48 49 50 51 52 53 
 54 55 56 58 59 60 61 62 63 65 66 67 
 68 69 70 71 72 73 74 75 
 17 
 10 12 14 16 23 24 25 28 35 39 40 45 
 46 47 57 69 70 
 3 
 9 50 53 
 41 
 2 5 6 10 11 13 14 16 17 18 25 27 
 30 31 34 35 36 37 40 41 43 44 46 47 
 49 50 54 55 56 58 60 61 63 65 66 67 
 68 69 70 72 75 
 28 
 2 3 8 9 11 14 17 18 20 24 28 29 
 33 38 41 46 48 53 57 58 60 61 64 65 
 66 68 69 75 
 31 
 1 2 4 5 6 7 10 11 12 13 17 18 
 19 22 24 25 26 28 31 32 34 39 41 42 
 43 51 53 54 59 65 71 
 30 
 3 4 5 7 8 9 10 11 17 18 20 21 
 26 34 36 43 45 46 47 49 54 63 64 65 
 66 67 69 71 72 74 
 42 
 2 5 6 7 8 10 11 13 14 16 21 22 
 23 25 29 31 32 35 36 37 38 39 44 45 
 46 47 49 50 52 56 58 59 60 61 63 64 
 65 67 69 70 73 74 
 5 
 13 15 20 32 63 
 41 
 1 2 3 4 5 6 8 9 10 14 19 20 
 27 28 29 31 35 36 37 39 40 41 45 46 
 47 48 50 51 52 53 56 57 59 61 62 63 
 66 69 73 74 75 
 3 
 15 65 66 
 2 
 6 51 
 11 
 6 7 28 34 44 47 49 60 64 67 72 
 63 
 2 3 5 6 7 8 9 10 12 13 14 15 
 16 17 20 21 22 23 24 25 26 27 28 29 
 30 31 32 33 34 35 37 39 40 42 43 44 
 45 47 48 49 50 51 52 53 55 56 57 58 
 59 60 61 62 63 64 65 67 68 69 70 72 
 73 74 75 
 43 
 1 2 6 12 13 15 16 17 19 20 24 27 
 32 33 34 37 39 40 41 42 43 44 45 46 
 47 49 51 52 55 56 57 58 62 63 64 65 
 66 67 69 70 71 72 74 
 64 
 1 2 3 4 5 6 7 8 9 10 11 12 
 15 16 17 19 21 22 23 24 25 26 27 28 
 29 30 31 32 33 34 35 36 37 38 40 41 
 42 43 44 45 46 47 48 50 53 54 55 56 
 57 59 60 61 62 63 64 65 67 68 70 71 
 72 73 74 75 
 5 
 9 35 39 46 69 
 61 
 1 2 3 4 6 7 8 9 10 11 13 14 
 15 16 18 19 22 23 24 25 26 27 28 30 
 31 32 33 34 35 36 37 39 41 43 44 46 
 47 48 49 51 52 53 55 56 57 58 59 60 
 61 62 63 64 65 66 67 69 70 71 72 73 
 75 
 75 
 1 2 3 4 5 6 7 8 9 10 11 12 
 13 14 15 16 17 18 19 20 21 22 23 24 
 25 26 27 28 29 30 31 32 33 34 35 36 
 37 38 39 40 41 42 43 44 45 46 47 48 
 49 50 51 52 53 54 55 56 57 58 59 60 
 61 62 63 64 65 66 67 68 69 70 71 72 
 73 74 75 
 4 
 40 59 60 62 
 38 
 1 2 4 5 7 8 9 13 15 19 20 26 
 27 30 32 34 39 40 45 46 47 48 50 53 
 54 55 56 58 59 60 61 66 67 68 69 70 
 72 74 
 11 
 4 14 15 44 45 51 52 57 62 65 75 
 53 
 1 2 3 4 5 6 7 9 12 13 14 17 
 20 22 23 24 26 28 29 30 32 33 35 37 
 38 40 41 42 43 44 45 46 47 50 51 52 
 56 57 58 59 60 61 63 64 65 66 67 69 
 70 71 73 74 75 
 49 
 1 4 5 6 8 9 10 11 12 14 15 16 
 17 21 22 23 24 25 28 29 30 31 32 34 
 35 38 39 40 41 43 44 45 46 47 49 50 
 51 53 54 55 56 57 60 61 66 67 68 69 
 73 
 21 
 1 3 6 19 20 24 30 31 33 36 37 44 
 45 46 51 52 53 59 63 64 75 
 39 
 1 3 6 9 10 11 12 13 17 18 20 21 
 23 24 29 32 33 36 38 40 41 42 43 46 
 49 50 53 54 60 62 64 66 68 69 70 71 
 72 73 74 
 39 
 1 2 4 7 11 13 15 16 19 20 22 24 
 31 32 35 36 38 40 41 42 43 45 46 49 
 51 53 54 57 58 59 62 63 65 66 67 68 
 70 71 75 
 73 
 1 3 4 5 6 7 8 9 10 11 12 13 
 14 15 16 17 18 19 20 21 22 23 24 25 
 26 27 28 29 30 31 32 33 34 35 36 37 
 38 39 40 41 42 43 44 45 46 47 48 49 
 50 51 52 53 54 55 56 57 58 59 60 61 
 62 63 64 65 66 68 69 70 71 72 73 74 
 75 
 41 
 1 2 4 5 6 7 9 10 18 20 22 23 
 24 25 26 31 32 33 34 38 39 40 42 47 
 48 49 52 54 57 59 60 61 64 65 66 67 
 68 71 72 73 75 
 67 
 1 2 3 4 5 6 7 8 9 10 11 12 
 13 14 15 16 17 18 19 20 22 24 25 26 
 27 28 29 30 31 32 33 34 35 36 37 38 
 39 40 41 42 44 45 46 47 49 51 52 53 
 54 55 56 58 59 61 62 63 64 66 67 68 
 69 70 71 72 73 74 75 
 73 
 1 3 4 5 6 7 8 9 10 11 12 13 
 14 15 16 17 18 19 20 21 22 23 24 25 
 26 27 28 29 30 31 32 33 34 36 37 38 
 39 40 41 42 43 44 45 46 47 48 49 50 
 51 52 53 54 55 56 57 58 59 60 61 62 
 63 64 65 66 67 68 69 70 71 72 73 74 
 75 
 14 
 9 17 19 24 26 30 47 48 52 54 56 63 
 66 67 
 33 
 2 3 7 9 10 11 13 14 15 22 23 28 
 29 32 33 35 37 39 46 47 48 53 54 57 
 61 62 64 65 66 71 73 74 75 
 29 
 2 10 12 15 16 17 19 20 24 25 26 27 
 30 33 34 36 39 41 43 50 52 56 61 62 
 63 64 67 68 71 
 18 
 4 5 6 8 10 16 20 21 24 26 32 39 
 40 47 60 66 71 75 
 30 
 2 3 5 6 7 8 11 12 14 15 16 19 
 20 21 24 32 36 38 41 43 44 45 56 59 
 65 68 71 72 74 75 
 35 
 9 10 12 13 14 19 20 21 23 25 27 28 
 29 31 33 34 35 36 38 39 43 44 48 49 
 52 53 56 60 61 62 64 65 67 69 71 
 23 
 6 9 11 12 14 17 20 23 24 25 28 29 
 32 35 37 42 44 48 50 51 64 66 67 
 70 
 1 2 3 4 5 6 7 8 9 10 11 12 
 13 14 15 16 18 19 20 21 22 23 24 25 
 26 27 28 29 30 31 32 33 34 35 36 37 
 39 40 41 42 43 44 45 46 47 48 49 50 
 51 52 53 54 55 57 58 59 61 62 63 64 
 65 66 67 68 69 70 71 72 73 74 
 4 
 3 9 29 43 
 3 
 42 63 73 
 55 
 1 2 3 5 6 7 8 9 10 12 14 16 
 18 19 20 21 22 24 25 26 27 28 29 32 
 33 37 38 39 40 41 42 43 44 46 48 49 
 50 51 52 53 54 55 57 58 59 60 61 62 
 65 66 69 70 71 72 73 
 62 
 1 2 5 6 7 8 9 11 12 13 14 15 
 16 17 18 19 21 22 23 25 26 27 28 29 
 30 32 33 34 35 37 38 40 41 43 44 46 
 47 48 49 50 52 53 54 55 56 58 59 60 
 61 62 63 64 65 67 68 69 70 71 72 73 
 74 75 
 52 
 1 2 3 7 8 9 10 13 16 17 18 19 
 20 21 22 24 25 27 28 29 30 31 33 34 
 35 36 37 38 39 40 41 42 44 45 46 47 
 48 49 51 52 53 62 63 64 65 66 67 70 
 71 72 73 75 
 47 
 2 3 5 6 8 12 13 18 21 23 24 25 
 26 27 28 31 32 33 37 38 40 41 42 44 
 45 46 47 48 49 50 51 55 56 57 58 60 
 61 62 63 64 65 68 70 71 73 74 75 
 44 
 2 5 7 8 9 10 11 12 13 14 15 16 
 20 21 22 23 24 26 27 28 29 30 31 32 
 33 34 35 37 38 41 42 45 46 48 51 52 
 55 57 59 60 63 66 69 73 
 30 
 1 6 7 8 9 13 16 17 20 23 24 27 
 35 37 40 43 44 45 47 49 53 54 55 58 
 60 61 63 64 66 73 
 67 
 1 2 4 6 7 8 9 10 11 12 13 14 
 15 16 17 19 20 21 22 23 24 25 26 27 
 28 29 30 31 32 33 35 36 37 38 39 40 
 41 42 43 44 45 46 47 48 49 50 51 52 
 54 55 56 57 58 60 61 62 63 64 65 66 
 67 68 69 71 72 73 75 
 62 
 1 3 4 5 6 7 8 10 12 13 15 16 
 17 18 19 20 21 22 23 24 25 26 27 29 
 32 33 34 35 36 37 38 40 41 42 44 45 
 46 48 49 50 51 52 53 54 55 57 58 59 
 60 61 62 63 64 65 66 67 68 69 71 72 
 73 75 
 70 
 1 2 3 4 5 6 7 8 9 10 11 12 
 13 14 15 16 17 18 21 23 24 26 27 28 
 29 30 31 32 33 34 35 36 37 38 39 40 
 41 42 44 45 46 47 48 49 50 51 52 53 
 54 55 56 57 58 59 60 61 62 63 64 65 
 66 67 68 69 70 71 72 73 74 75 
 33 
 2 5 8 13 18 21 23 24 28 29 30 32 
 33 36 37 38 44 45 46 48 50 52 57 58 
 61 62 64 67 70 72 73 74 75 
 7 
 16 22 24 47 50 61 70 
 34 
 2 4 6 8 17 18 20 22 24 25 26 29 
 30 31 32 35 36 37 38 39 41 42 43 44 
 45 47 50 51 55 58 60 61 66 75 
 32 
 2 3 4 8 9 10 11 12 13 15 16 17 
 20 22 31 32 33 35 37 38 39 40 42 43 
 45 46 47 49 61 69 72 73 
 74 
 1 2 3 4 5 6 7 8 9 10 11 12 
 13 14 15 16 17 18 19 20 21 22 23 24 
 25 26 28 29 30 31 32 33 34 35 36 37 
 38 39 40 41 42 43 44 45 46 47 48 49 
 50 51 52 53 54 55 56 57 58 59 60 61 
 62 63 64 65 66 67 68 69 70 71 72 73 
 74 75 
 62 
 2 3 4 5 6 7 9 10 11 12 13 14 
 15 16 17 18 20 21 22 23 25 26 27 28 
 29 30 31 32 33 34 35 36 38 39 40 41 
 42 44 45 46 47 49 50 51 52 54 55 56 
 57 58 59 60 62 63 65 66 69 70 71 72 
 73 74 
 54 
 1 2 4 5 7 9 12 13 14 15 17 19 
 20 21 22 23 26 27 28 29 30 32 33 35 
 36 38 39 41 42 43 44 45 46 47 49 50 
 52 53 54 56 57 59 60 62 63 64 65 67 
 68 69 70 71 73 75 
 19 
 4 15 16 18 24 27 30 35 43 46 47 55 
 62 65 68 69 70 74 75 
 66 
 1 2 4 5 6 7 8 9 10 11 12 14 
 15 16 17 18 19 20 21 23 24 25 26 27 
 28 30 31 32 33 34 35 36 37 39 40 41 
 42 43 44 45 46 47 48 49 50 51 52 53 
 54 55 56 58 60 61 62 63 64 66 67 68 
 69 71 72 73 74 75 
 48 
 1 2 6 8 9 11 13 14 17 18 19 22 
 24 28 30 31 32 34 35 36 37 38 39 40 
 41 42 43 44 46 48 49 50 51 53 54 56 
 57 59 61 64 65 66 67 68 70 71 72 73 
 71 
 1 2 3 4 5 6 7 8 9 11 12 13 
 14 15 16 17 18 19 20 21 22 23 24 26 
 27 28 29 30 31 32 33 34 35 36 37 38 
 39 40 41 42 43 44 45 47 48 49 50 51 
 52 53 54 55 56 57 58 59 60 61 62 63 
 64 65 66 67 68 69 71 72 73 74 75 
 67 
 1 3 4 5 6 7 8 10 11 12 13 14 
 15 16 17 19 20 21 23 24 25 26 27 28 
 29 30 31 32 34 35 36 37 38 39 40 41 
 43 45 46 47 48 49 50 51 52 53 54 55 
 56 57 58 59 60 61 62 63 64 65 66 67 
 68 69 70 71 73 74 75 
 23 
 2 5 7 9 12 13 18 25 27 29 30 38 
 41 44 49 53 54 58 63 67 69 74 75 
 19 
 1 6 7 9 11 12 19 26 28 36 42 43 
 47 48 49 50 57 58 73 
 3 
 21 28 33 
 35 
 1 3 4 6 10 11 15 17 21 22 24 25 
 28 29 30 32 35 36 38 39 40 41 42 43 
 44 47 49 50 51 60 62 63 68 70 74 
 63 
 1 2 4 5 6 7 8 9 11 13 14 15 
 17 18 19 21 22 23 24 25 26 27 29 30 
 31 32 33 34 35 36 37 38 40 41 42 43 
 44 45 46 47 48 49 50 52 53 54 56 57 
 58 59 61 62 63 64 65 66 67 68 69 70 
 71 72 73 
 11 
 3 5 7 19 22 24 28 38 44 47 62 
 47 
 3 4 5 7 8 10 11 12 13 14 15 16 
 18 21 23 24 25 27 29 30 31 36 37 40 
 41 42 43 46 47 48 49 50 52 53 56 57 
 59 60 62 63 64 65 66 70 71 72 73 
 10 
 5 12 25 33 40 45 52 64 65 68 
 50 
 1 2 4 5 6 7 9 12 14 15 16 17 
 18 19 21 22 26 27 28 30 31 32 35 36 
 37 38 40 41 42 43 44 47 48 49 51 52 
 53 54 57 58 59 60 63 65 66 67 68 70 
 71 75 
 50 
 1 2 3 5 8 9 10 11 12 13 14 16 
 17 18 20 21 23 24 26 29 30 32 36 37 
 39 40 41 44 46 47 48 49 50 51 53 55 
 56 58 61 63 64 66 67 68 70 71 72 73 
 74 75 
 19 
 4 10 15 23 29 30 31 39 40 44 45 51 
 52 54 55 61 63 67 73 
 29 
 1 2 4 8 12 15 17 18 21 25 27 28 
 30 32 34 36 38 39 47 50 52 54 56 57 
 59 65 68 71 72 
 33 
 1 4 11 12 13 14 16 19 22 23 24 28 
 29 35 38 39 40 43 44 45 49 53 54 56 
 57 58 59 62 63 66 67 73 75 
 72 
 1 2 3 4 5 6 7 8 9 10 11 13 
 14 15 16 17 18 19 20 21 22 23 24 25 
 26 27 29 30 31 32 33 34 35 36 37 38 
 39 40 41 42 43 44 45 46 47 48 49 50 
 51 53 54 55 56 57 58 59 60 61 62 63 
 64 65 66 67 68 69 70 71 72 73 74 75 
 28 
 1 5 9 11 12 18 22 24 26 27 29 31 
 35 36 40 41 43 47 48 49 51 53 56 64 
 66 69 73 75 
 60 
 1 2 3 4 5 6 7 9 10 11 12 14 
 15 17 19 20 21 22 23 25 26 27 29 30 
 31 32 35 36 37 39 40 41 42 43 44 46 
 47 48 50 52 54 55 56 57 58 59 61 62 
 63 64 65 66 67 68 69 70 71 73 74 75 
 34 
 2 4 9 11 13 15 16 19 20 24 28 29 
 30 33 38 42 43 45 47 51 52 54 55 56 
 58 60 61 63 64 67 69 70 74 75 
 53 
 1 2 3 4 5 6 7 8 10 11 12 13 
 14 15 18 20 21 22 24 25 26 30 32 33 
 35 36 37 38 39 40 41 44 45 46 47 49 
 50 52 53 54 55 57 58 59 60 62 63 64 
 69 70 73 74 75 
 8 
 11 17 34 40 58 61 65 68 
 55 
 1 2 3 5 7 8 9 11 12 13 14 15 
 16 17 18 20 21 22 25 26 27 28 29 30 
 31 35 36 37 38 39 40 41 43 44 45 46 
 48 49 50 53 54 55 57 58 61 62 65 66 
 67 69 70 71 73 74 75 
 14 
 5 7 24 32 43 44 47 48 57 58 60 61 
 63 75 
 47 
 1 3 4 6 7 8 11 12 13 14 15 16 
 17 18 19 20 24 26 29 31 33 35 36 37 
 38 40 41 42 48 50 51 52 53 57 61 62 
 63 64 66 67 68 69 70 71 72 73 74 
 52 
 1 2 3 4 5 7 8 9 12 15 17 18 
 19 20 21 23 24 26 27 28 30 31 32 34 
 36 38 39 43 44 47 48 49 50 52 53 54 
 55 56 57 58 59 60 61 65 66 68 69 71 
 72 73 74 75 
 56 
 1 2 3 4 5 7 8 9 10 11 12 14 
 16 17 18 19 20 21 24 25 26 27 28 29 
 32 37 38 39 41 42 43 44 45 47 48 49 
 50 51 52 54 55 57 58 59 61 62 63 64 
 65 66 67 69 70 71 74 75 
 38 
 1 2 3 4 5 7 8 11 12 18 19 20 
 23 24 26 30 31 32 34 35 39 42 44 48 
 49 50 55 56 59 60 64 65 67 69 70 71 
 73 75 
 2 
 60 73 
 34 
 1 2 4 5 7 13 14 16 18 19 22 23 
 26 28 29 32 33 34 37 39 40 42 43 47 
 49 50 60 61 62 68 69 70 72 75 
 58 
 1 3 4 5 7 8 9 10 11 12 13 14 
 15 16 17 18 21 23 24 25 27 28 29 30 
 31 32 33 34 35 36 37 38 40 41 44 45 
 47 49 51 52 53 55 56 57 60 61 62 63 
 64 65 67 68 69 70 72 73 74 75 
 42 
 2 4 5 7 8 10 11 13 16 17 18 19 
 22 23 24 25 26 29 30 31 34 36 39 40 
 42 43 45 48 51 52 53 55 56 57 60 61 
 62 64 65 73 74 75 
 4 
 9 26 46 73 
 25 
 3 7 8 9 12 16 18 32 36 42 46 48 
 51 52 56 57 58 60 64 66 69 70 71 72 
 75 
 14 
 5 7 8 13 17 25 27 42 46 55 57 61 
 65 68 
 56 
 1 2 3 4 5 7 8 9 10 11 12 15 
 16 17 18 19 22 23 25 26 28 29 30 31 
 32 34 35 37 38 39 40 41 42 45 47 48 
 50 52 53 54 55 57 58 59 60 61 63 65 
 66 68 70 71 72 73 74 75 
 43 
 2 3 6 7 8 10 12 13 14 16 17 19 
 21 23 24 26 28 29 30 32 34 36 38 40 
 41 42 43 45 48 49 53 56 58 59 60 61 
 63 67 68 69 72 73 75 
 20 
 1 6 9 10 12 16 17 18 28 29 30 34 
 40 43 51 59 64 67 72 74 
 44 
 1 2 5 7 12 14 17 18 19 20 21 22 
 24 25 27 28 30 31 32 34 35 36 37 39 
 41 43 45 46 49 50 51 53 54 60 61 63 
 65 66 67 69 70 73 74 75 
 51 
 2 3 5 6 7 10 12 14 15 17 18 20 
 21 23 24 25 26 28 29 30 31 32 33 34 
 35 37 38 41 42 43 44 45 46 50 52 54 
 55 56 57 60 61 62 63 64 66 68 69 70 
 72 74 75 
 60 
 1 3 4 5 6 7 8 9 11 12 13 14 
 17 20 22 23 24 25 26 27 28 29 30 31 
 32 35 36 37 38 39 40 41 42 44 45 46 
 47 48 50 51 52 54 55 56 57 58 60 61 
 64 65 66 67 68 69 70 71 72 73 74 75 
 40 
 1 6 7 9 10 11 12 13 14 15 17 18 
 19 23 25 27 28 29 31 32 37 39 40 41 
 43 44 45 47 48 50 55 56 61 63 64 65 
 66 72 73 75 
 64 
 1 2 3 4 5 6 7 8 9 10 11 13 
 14 15 16 17 18 20 21 23 25 26 28 30 
 31 32 33 34 35 36 37 38 40 41 42 43 
 44 45 46 48 50 51 52 53 54 55 56 57 
 58 59 60 61 62 64 65 66 67 68 69 70 
 71 73 74 75 
 73 
 1 2 3 4 5 6 7 8 9 10 11 12 
 13 14 15 16 17 18 19 21 22 23 24 25 
 26 27 28 29 30 31 32 33 34 35 36 37 
 38 39 40 41 42 43 44 45 46 47 48 49 
 50 51 52 53 55 56 57 58 59 60 61 62 
 63 64 65 66 67 68 69 70 71 72 73 74 
 75 
 35 
 2 3 8 10 11 12 15 17 19 21 25 27 
 28 29 30 33 34 36 40 41 42 44 45 48 
 50 53 54 56 57 58 60 61 65 70 74 
 32 
 1 3 5 6 9 11 14 17 18 19 20 21 
 23 24 28 32 36 38 40 43 47 49 52 53 
 54 58 61 66 67 68 69 71 
 72 
 1 2 3 4 5 6 7 8 9 10 11 12 
 13 14 15 16 17 18 19 20 21 22 23 25 
 26 27 28 29 30 31 32 33 34 35 36 37 
 38 39 40 41 42 43 44 45 46 47 48 49 
 50 51 53 54 55 56 57 58 59 60 61 62 
 63 64 66 67 68 69 70 71 72 73 74 75 
 71 
 1 2 3 4 5 6 7 8 9 10 11 12 
 13 14 15 16 17 18 19 20 21 22 23 24 
 25 26 27 28 29 30 31 32 33 34 35 37 
 38 40 41 43 44 45 46 47 48 49 50 51 
 52 53 54 55 56 57 58 59 60 61 62 63 
 64 65 66 67 68 70 71 72 73 74 75 
 35 
 6 9 10 11 14 15 17 21 22 23 24 25 
 28 30 31 32 33 34 36 37 39 44 45 46 
 47 49 51 56 59 61 63 67 68 73 75 
 